(set-option :produce-models true)
(set-logic QF_UF)
(declare-fun p10() Bool)
(declare-fun p15() Bool)
(declare-fun p7() Bool)
(declare-fun p20() Bool)
(declare-fun p6() Bool)
(declare-fun p37() Bool)
(declare-fun p13() Bool)
(declare-fun p26() Bool)
(declare-fun p29() Bool)
(declare-fun p4() Bool)
(declare-fun p33() Bool)
(declare-fun p23() Bool)
(declare-fun p14() Bool)
(declare-fun p0() Bool)
(declare-fun p3() Bool)
(declare-fun p36() Bool)
(declare-fun p2() Bool)
(declare-fun p35() Bool)
(declare-fun p1() Bool)
(declare-fun p5() Bool)
(declare-fun p27() Bool)
(declare-fun p9() Bool)
(declare-fun p25() Bool)
(declare-fun p12() Bool)
(declare-fun p11() Bool)
(declare-fun p18() Bool)
(declare-fun p22() Bool)
(declare-fun p30() Bool)
(declare-fun p24() Bool)
(declare-fun p8() Bool)
(declare-fun p31() Bool)
(declare-fun p19() Bool)
(declare-fun p16() Bool)
(declare-fun p39() Bool)
(declare-fun p32() Bool)
(declare-fun p34() Bool)
(declare-fun p17() Bool)
(declare-fun p28() Bool)
(declare-fun p21() Bool)
(declare-fun p38() Bool)
(assert
(and (or p10 (not p15) (not p7) p20 (not p6)) (or (not p37) (not p13) p15 p26 p29) (or (not p4) (not p33) (not p23) (not p14) p15) (or (not p0) p23 p3 (not p36) (not p13)) (or p2 p35 p10 p37 p1) (or (not p5) p2 p27 p6 p9) (or p25 p0 p12 p0 p11) (or (not p18) (not p33) p22 p30 p24) (or p8 p33 p3 p8 p31) (or (not p19) (not p14) p1 (not p16) p15) (or p14 (not p6) p15 p4 (not p26)) (or (not p39) (not p31) (not p11) (not p32) (not p31)) (or (not p19) (not p11) (not p29) (not p22) p10) (or p34 (not p3) p9 p1 (not p8)) (or (not p26) (not p4) (not p35) p25 (not p33)) (or (not p20) p17 (not p0) p31 p28) (or p25 p13 p16 p2 (not p2)) (or p17 (not p30) p30 p28 (not p32)) (or p0 (not p36) p8 (not p14) p37) (or (not p1) p37 p28 (not p10) p33) (or (not p10) (not p16) p18 (not p33) p21) (or (not p37) p36 p12 p9 p27) (or p15 (not p38) (not p16) (not p2) p29) (or p32 p35 (not p1) (not p21) (not p37)) (or (not p31) p3 (not p16) p36 p35) (or p3 p1 p31 p17 p19) (or (not p16) p19 p29 (not p15) p4) (or p28 p6 p21 (not p16) (not p23)) (or (not p5) (not p21) p4 p27 (not p21)) (or p0 p7 (not p3) (not p26) p19) (or p6 p14 p14 p3 p21) (or (not p25) (not p9) p14 (not p11) p23) (or (not p26) (not p21) (not p25) (not p4) p20) (or p38 p15 p27 (not p22) p36) (or (not p23) p18 p17 (not p32) (not p31)) (or p37 (not p10) p33 p32 (not p4)) (or (not p2) (not p19) (not p3) p17 (not p22)) (or (not p22) (not p16) p33 p21 (not p16)) (or p26 (not p21) p2 p19 (not p16)) (or p1 (not p7) p30 p21 p22) (or (not p18) p23 (not p16) (not p39) p20) (or (not p36) p19 p25 p12 p7) (or (not p9) (not p18) p1 p32 p38) (or p6 (not p20) (not p2) (not p29) p9) (or p26 p14 p5 (not p35) (not p24)) (or (not p26) (not p7) (not p25) (not p17) p30) (or (not p13) (not p14) (not p10) (not p30) p8) (or p15 p37 p1 (not p2) p19) (or (not p17) p6 p26 p15 p36) (or p36 (not p30) p1 p5 p15) (or (not p25) (not p2) (not p6) p5 (not p3)) (or p0 (not p30) p6 (not p8) (not p20)) (or (not p24) p31 p14 p10 (not p37)) (or (not p5) p19 (not p26) (not p29) (not p8)) (or (not p22) (not p22) (not p31) p4 (not p17)) (or (not p24) (not p20) (not p10) (not p16) (not p7)) (or (not p10) (not p10) (not p22) p7 (not p29)) (or (not p5) (not p30) (not p13) (not p30) (not p35)) (or p14 p6 p25 (not p25) (not p36)) (or (not p9) (not p31) (not p21) p15 (not p9)) (or (not p11) p21 (not p24) (not p11) (not p15)) (or p15 p39 p27 (not p34) p15) (or p21 p13 (not p12) p17 (not p16)) (or p1 (not p15) p20 (not p26) (not p14)) (or (not p12) p4 p29 p10 p4) (or (not p26) (not p20) p4 (not p28) (not p17)) (or (not p34) (not p39) p30 p6 (not p15)) (or p36 p39 (not p16) p32 p3) (or (not p17) p12 p20 p3 (not p35)) (or p20 (not p31) p38 p5 (not p2)) (or p35 p3 (not p21) (not p32) p30) (or p18 (not p34) p39 (not p36) (not p12)) (or p16 (not p17) (not p11) p15 (not p15)) (or (not p6) p32 (not p4) (not p24) p6) (or (not p14) p6 p34 (not p19) (not p21)) (or (not p31) (not p32) p10 p5 p2) (or p10 (not p39) p23 p26 p2) (or (not p15) (not p27) (not p0) p1 p30) (or p36 (not p37) p18 (not p24) (not p11)) (or p3 (not p29) p35 (not p35) p9) (or p16 (not p29) p28 p32 p6) (or (not p32) (not p30) p14 p30 p26) (or p15 p26 p14 p38 (not p16)) (or p23 p6 (not p33) p16 p37) (or p11 (not p22) (not p39) p24 (not p35)) (or p32 (not p1) (not p6) (not p39) (not p30)) (or p21 (not p30) p10 p8 (not p20)) (or (not p17) (not p32) (not p25) (not p16) p39) (or (not p39) (not p18) (not p0) p23 (not p11)) (or (not p30) p11 p13 (not p8) (not p7)) (or p29 (not p38) p2 p17 (not p21)) (or (not p5) (not p23) p28 p30 p32) (or (not p9) (not p2) (not p20) p27 (not p10)) (or (not p17) (not p22) p24 (not p8) p34) (or p30 p23 (not p16) (not p26) (not p6)) (or p24 (not p22) (not p0) p21 (not p25)) (or p12 p39 p24 (not p0) (not p19)) (or (not p29) (not p31) p6 (not p14) p9) (or p23 p20 (not p3) (not p22) (not p19)) (or p3 (not p34) (not p21) (not p7) (not p21)) (or (not p3) (not p12) p9 p0 p21) (or p35 p13 p24 (not p16) p3) (or p9 (not p32) p2 (not p20) p34) (or p33 p37 p5 p29 (not p29)) (or p15 p10 (not p31) (not p27) p11) (or (not p13) p11 (not p8) (not p32) p30) (or (not p33) p38 p22 p27 p11) (or p30 (not p17) p14 p19 p14) (or p17 (not p18) p32 p6 (not p2)) (or p20 (not p36) (not p2) (not p28) p27) (or (not p2) p37 (not p13) (not p3) p15) (or p20 (not p36) (not p32) (not p39) p25) (or (not p11) (not p8) (not p34) p8 (not p5)) (or p8 (not p19) p35 (not p9) p22) (or p23 (not p16) p3 p15 p39) (or p12 p17 p15 (not p37) p31) (or p8 p2 p26 (not p15) (not p19)) (or p19 p36 (not p36) (not p4) p16) (or (not p30) p10 p19 (not p23) p20) (or p22 p18 (not p20) p34 (not p0)) (or (not p11) (not p8) (not p33) p10 p1) (or (not p18) p3 (not p3) p20 p19) (or (not p24) p24 p36 p35 (not p11)) (or (not p21) p16 p13 p26 (not p32)) (or p11 (not p5) p5 p7 (not p35)) (or p25 p0 p30 p32 (not p17)) (or (not p29) p16 (not p15) p27 (not p36)) (or (not p35) p28 p22 p8 p13) (or (not p13) (not p12) (not p12) (not p28) p4) (or (not p17) (not p5) (not p4) p25 (not p25)) (or (not p20) p38 p27 (not p2) (not p0)) (or (not p5) (not p5) p18 p2 (not p7)) (or p28 p30 p21 (not p28) (not p14)) (or p9 p4 (not p10) p37 (not p14)) (or (not p32) p30 p28 (not p35) p31) (or p35 (not p14) (not p3) p30 (not p13)) (or (not p2) p16 (not p31) p7 p13) (or (not p13) (not p32) (not p14) p8 (not p13)) (or p23 p5 p8 (not p35) (not p20)) (or p7 p34 (not p35) (not p20) p1) (or (not p34) (not p25) p12 (not p5) p37) (or (not p15) (not p6) (not p36) (not p23) p3) (or (not p36) (not p1) (not p25) p28 (not p32)) (or (not p23) (not p6) (not p13) p24 (not p16)) (or (not p13) p9 (not p32) (not p27) p28) (or (not p8) (not p16) p18 (not p11) p16) (or (not p4) (not p1) (not p18) (not p2) (not p28)) (or (not p1) p4 p28 p4 (not p0)) (or p25 p13 p2 (not p27) (not p25)) (or p18 p23 p17 (not p15) (not p11)) (or (not p30) p22 p16 p32 p27) (or p3 (not p31) p22 p0 p15) (or (not p33) (not p0) p12 (not p2) (not p2)) (or p37 (not p3) (not p34) (not p30) p36) (or p27 p15 (not p26) p11 p3) (or (not p29) (not p31) (not p4) p23 (not p12)) (or p30 (not p27) (not p39) p19 p12) (or (not p36) (not p17) (not p2) (not p29) (not p16)) (or p21 (not p20) (not p35) (not p31) p20) (or (not p29) p35 p17 (not p23) p29) (or p28 p29 (not p14) p2 (not p28)) (or (not p11) (not p0) (not p19) p9 p20) (or p37 (not p25) p36 (not p16) p33) (or (not p37) p21 p6 p4 p14) (or (not p32) p22 (not p20) (not p11) p12) (or p24 p9 (not p32) (not p21) (not p16)) (or (not p20) p3 (not p23) p24 p19) (or p11 (not p6) (not p39) p17 (not p25)) (or p22 (not p5) (not p33) p24 (not p25)) (or p2 (not p17) (not p13) p28 (not p14)) (or (not p3) (not p16) (not p6) p30 (not p5)) (or p29 (not p23) p20 (not p20) p30) (or p25 p18 (not p22) (not p17) (not p0)) (or p25 (not p37) p0 (not p37) (not p15)) (or (not p22) p7 p26 (not p31) p18) (or (not p23) (not p9) p22 (not p12) p17) (or p19 (not p29) (not p18) p22 (not p7)) (or (not p4) p33 p8 (not p32) p35) (or (not p27) p32 (not p7) p13 (not p27)) (or p20 p25 (not p28) (not p17) p19) (or (not p3) p13 p12 (not p0) p9) (or p32 p21 (not p16) p4 (not p27)) (or p16 (not p14) p20 (not p20) p13) (or (not p5) (not p27) (not p26) p32 p39) (or p29 (not p13) (not p39) p30 p19) (or p4 (not p38) (not p23) p3 (not p28)) (or (not p3) (not p24) p9 p13 p0) (or p25 p1 p6 (not p25) (not p10)) (or (not p12) (not p9) (not p37) (not p27) (not p10)) (or (not p30) p21 (not p31) p19 (not p26)) (or (not p27) p15 (not p18) p11 (not p18)) (or (not p2) p16 (not p39) p23 p30) (or p4 p31 p11 p28 (not p31)) (or p24 p39 (not p7) p26 p5) (or (not p28) (not p32) (not p0) (not p11) p2) (or p32 (not p15) p27 (not p2) p28) (or (not p19) p33 (not p35) (not p8) (not p18)) (or p4 p0 p7 p38 (not p36)) (or (not p9) (not p18) p7 (not p31) p8) (or (not p6) p12 (not p27) p36 p12) (or p7 (not p38) p16 p17 (not p9)) (or p1 (not p5) (not p7) p39 p29) (or (not p33) (not p2) p10 (not p34) p17) (or p29 (not p5) p38 p22 p3) (or p33 (not p16) p27 p39 p13) (or p17 (not p13) p20 p19 p6) (or p19 (not p2) (not p26) (not p31) (not p9)) (or (not p9) (not p15) (not p7) p22 p0) (or (not p0) (not p0) p12 (not p3) p27) (or (not p32) p35 p8 p4 (not p3)) (or p39 p10 (not p38) (not p11) (not p33)) (or p7 (not p30) p20 (not p16) p4) (or (not p2) p21 (not p35) p25 (not p15)) (or (not p34) (not p28) (not p21) p8 p35) (or p10 (not p22) (not p4) p10 p0) (or (not p0) (not p33) p37 p5 p36) (or p4 p4 p5 (not p39) (not p31)) (or p33 p0 (not p5) (not p37) (not p9)) (or p3 (not p23) p29 (not p6) p6) (or p5 p1 p6 (not p3) p4) (or (not p26) p18 (not p3) (not p34) p10) (or p26 (not p32) (not p32) (not p39) (not p12)) (or p35 p21 p23 (not p3) (not p28)) (or (not p31) p6 p2 (not p18) (not p11)) (or p1 p13 p29 (not p0) p7) (or p27 (not p3) p27 (not p24) (not p3)) (or (not p23) (not p16) p36 (not p22) p31) (or p3 p38 p21 p16 p38) (or p9 p33 p38 p8 (not p35)) (or p26 (not p37) p25 (not p20) p16) (or (not p10) (not p38) p33 (not p37) p27) (or (not p23) (not p18) p20 p34 (not p26)) (or (not p24) (not p6) (not p0) p38 (not p20)) (or (not p29) p21 p1 p15 p6) (or (not p22) (not p16) (not p17) (not p34) (not p37)) (or p4 (not p6) p3 p15 p26) (or p32 p31 (not p38) (not p2) (not p10)) (or (not p25) p1 (not p27) (not p20) p2) (or (not p25) (not p14) (not p7) (not p32) (not p0)) (or (not p24) p28 (not p4) (not p18) p2) (or (not p17) (not p13) (not p26) (not p1) p36) (or (not p8) (not p2) p23 (not p11) p12) (or p19 p11 (not p2) p39 (not p9)) (or (not p31) p30 (not p32) (not p4) (not p30)) (or (not p26) (not p34) (not p20) p3 p23) (or (not p12) p30 p28 p30 (not p16)) (or p6 p3 (not p3) (not p36) (not p15)) (or (not p39) p14 p28 (not p35) p19) (or (not p10) p26 p26 p3 (not p34)) (or (not p2) (not p14) p17 p9 (not p5)) (or (not p7) (not p31) (not p10) p8 p26) (or p13 p3 (not p1) p10 p0) (or p21 (not p3) p22 (not p21) p6) (or (not p5) (not p13) (not p35) (not p4) p17) (or (not p25) (not p26) p39 p18 p4) (or (not p7) p18 (not p0) p22 (not p24)) (or (not p9) (not p21) p26 (not p2) p3) (or (not p24) (not p34) (not p36) p15 p7) (or p25 (not p28) (not p20) p7 (not p13)) (or (not p24) (not p38) p16 p26 (not p8)) (or (not p38) (not p5) (not p16) (not p31) (not p13)) (or p38 (not p36) (not p20) (not p10) p29) (or p28 (not p5) p23 p6 (not p24)) (or (not p26) (not p37) (not p15) (not p15) (not p8)) (or p21 p3 p5 (not p35) p36) (or p1 (not p31) p30 (not p22) p22) (or (not p29) (not p5) (not p14) p34 (not p19)) (or (not p36) p8 p26 p27 (not p32)) (or (not p33) p28 p20 p8 p9) (or (not p14) (not p31) p25 p12 (not p24)) (or (not p18) p31 p28 p32 (not p20)) (or p1 p22 p25 (not p21) (not p10)) (or (not p34) (not p18) (not p0) (not p9) (not p5)) (or p9 p32 p33 p16 p18) (or p22 p6 p32 (not p39) p16) (or (not p8) p5 (not p26) (not p2) (not p6)) (or p7 (not p23) p34 p10 (not p13)) (or p9 p16 (not p9) (not p35) p38) (or p17 (not p31) p21 p22 p5) (or (not p6) p6 p33 (not p14) (not p15)) (or p18 p8 (not p10) p5 p34) (or (not p10) (not p19) p7 p26 p38) (or p20 (not p12) p11 p16 (not p7)) (or p5 (not p3) (not p26) (not p2) p32) (or p23 (not p31) (not p10) p32 (not p4)) (or (not p34) (not p26) p36 p39 p30) (or (not p25) p34 (not p12) p12 p39) (or p39 (not p0) (not p27) (not p14) p34) (or p21 p33 (not p12) (not p28) p21) (or (not p11) (not p32) (not p5) (not p35) (not p22)) (or (not p23) p9 p20 (not p1) p23) (or p4 (not p27) p33 p11 (not p6)) (or (not p31) p30 (not p37) (not p33) p34) (or p36 (not p0) (not p35) p36 p26) (or (not p35) p18 p0 (not p37) (not p11)) (or (not p28) (not p24) p6 (not p7) p18) (or p27 p23 p19 p37 p37) (or p20 p23 p3 (not p1) p23) (or p2 (not p14) (not p31) p29 (not p9)) (or p34 p29 p4 (not p14) p10) (or p8 (not p17) p25 (not p35) (not p8)) (or p19 p18 (not p10) p16 (not p20)) (or (not p35) (not p26) p13 (not p8) p25) (or p6 p39 p18 p1 p4) (or p38 p1 (not p34) (not p24) p35) (or (not p14) (not p36) p9 p33 p2) (or p33 (not p23) p28 p22 p24) (or (not p30) p31 (not p1) (not p13) (not p17)) (or (not p22) p0 p18 (not p9) (not p5)) (or (not p22) (not p7) (not p0) (not p34) p8) (or (not p31) p39 p22 p29 (not p31)) (or (not p25) (not p4) (not p25) p19 p36) (or (not p17) p5 (not p25) p33 (not p24)) (or (not p21) p36 p2 (not p14) p0) (or (not p36) (not p19) (not p22) p27 p17) (or p32 (not p6) p13 p6 (not p33)) (or p13 (not p34) (not p2) (not p15) (not p30)) (or p39 (not p10) p13 p19 (not p7)) (or (not p6) (not p33) (not p4) p30 p25) (or p26 (not p35) p32 p38 (not p36)) (or (not p12) (not p22) p25 (not p12) p17) (or (not p0) (not p0) (not p27) p31 (not p13)) (or (not p35) (not p10) (not p15) (not p7) (not p33)) (or p35 (not p1) p4 p8 (not p35)) (or p6 (not p26) (not p10) (not p9) p0) (or p15 (not p23) p26 (not p39) p33) (or (not p35) p16 (not p5) (not p39) p7) (or p9 (not p0) (not p30) p7 (not p2)) (or p14 (not p31) (not p21) p31 (not p36)) (or (not p15) p31 (not p4) p13 p7) (or p17 p14 (not p22) p9 p2) (or (not p18) p35 p16 (not p3) p2) (or p33 (not p29) (not p0) p24 (not p33)) (or p13 p13 p11 (not p27) p17) (or (not p16) (not p1) p39 (not p38) (not p11)) (or p14 (not p19) p10 (not p12) (not p37)) (or p33 p39 p28 p11 (not p1)) (or p18 (not p31) p20 p1 p22) (or (not p18) (not p3) p10 p7 p15) (or (not p21) (not p32) (not p30) p26 p33) (or (not p1) p33 (not p16) (not p30) (not p36)) (or p31 p37 p22 (not p7) (not p11)) (or p35 p7 p19 (not p13) p25) (or (not p21) p5 (not p16) (not p36) p39) (or (not p18) (not p4) (not p19) p20 p35) (or (not p15) (not p28) p7 (not p24) p37) (or (not p37) (not p24) p21 p19 p4) (or p20 (not p30) (not p15) p19 (not p23)) (or (not p20) (not p32) p11 (not p21) (not p26)) (or (not p14) p16 (not p3) p4 (not p32)) (or p29 (not p19) (not p35) (not p35) (not p13)) (or (not p21) p0 p11 p34 p3) (or p7 (not p8) p11 p21 (not p4)) (or p36 (not p30) (not p2) (not p25) p38) (or p11 (not p36) (not p26) (not p15) p32) (or p25 (not p28) p20 (not p28) p37) (or p32 (not p12) (not p19) p21 (not p26)) (or p12 (not p35) (not p29) (not p14) (not p7)) (or p15 (not p21) (not p4) p31 p33) (or p11 (not p9) (not p27) p17 (not p14)) (or p9 (not p7) p1 (not p37) (not p21)) (or p15 (not p38) p36 p12 p17) (or p23 (not p34) p16 p9 (not p19)) (or (not p24) p5 (not p23) (not p6) p5) (or (not p16) p25 (not p13) p19 p18) (or p16 (not p30) p22 (not p25) (not p3)) (or p20 (not p1) (not p5) p30 p14) (or (not p26) p24 p31 p8 p33) (or (not p8) (not p31) p34 (not p6) (not p28)) (or (not p27) (not p7) p22 p3 (not p20)) (or p12 p22 (not p29) p16 (not p32)) (or (not p25) (not p21) p31 p21 p35) (or p37 p7 (not p31) p3 (not p20)) (or (not p15) p23 p38 (not p31) (not p35)) (or p3 p19 p14 (not p1) p22) (or p6 (not p29) (not p2) (not p31) (not p11)) (or (not p26) (not p24) p20 (not p9) p21) (or p13 p0 (not p18) (not p3) (not p18)) (or (not p11) p22 (not p5) p29 (not p37)) (or p3 (not p25) (not p11) p4 (not p6)) (or p30 (not p21) (not p24) (not p0) (not p11)) (or (not p35) p17 p35 p39 p4) (or p10 (not p36) p19 p0 (not p9)) (or p35 p11 p24 p6 (not p34)) (or p29 (not p26) (not p0) p3 (not p2)) (or p9 p30 (not p6) p35 (not p39)) (or p26 p34 p9 p36 p30) (or p1 p9 p37 p12 p15) (or (not p18) (not p8) (not p11) (not p23) p4) (or (not p7) p18 p0 (not p29) (not p15)) (or (not p12) (not p36) (not p32) p26 (not p21)) (or (not p32) p31 (not p9) (not p19) (not p26)) (or p24 (not p27) p26 (not p36) p3) (or (not p1) p37 p32 p27 (not p1)) (or p23 p5 p17 p9 (not p23)) (or p8 (not p32) p15 p21 p7) (or (not p1) p19 p37 p8 (not p22)) (or (not p23) p31 p25 (not p23) (not p32)) (or p21 p30 p35 p19 (not p5)) (or (not p17) p0 p3 p3 (not p26)) (or p7 p39 p32 (not p35) (not p24)) (or (not p13) (not p7) (not p2) (not p36) (not p39)) (or (not p4) (not p19) (not p11) p36 (not p32)) (or p22 (not p8) (not p16) p33 p27) (or p7 (not p21) p3 p37 (not p34)) (or (not p19) (not p17) (not p20) (not p37) (not p35)) (or (not p9) p32 (not p38) p21 (not p4)) (or p7 (not p39) p11 p23 p21) (or (not p28) (not p22) p16 p20 p10) (or (not p33) (not p10) (not p6) (not p29) (not p4)) (or (not p32) p2 p1 (not p22) (not p6)) (or p35 p33 (not p38) p23 p2) (or (not p33) (not p22) p14 p18 p36) (or p19 p18 (not p0) (not p39) (not p16)) (or p9 (not p0) p34 (not p33) p39) (or (not p0) (not p15) p27 (not p31) p6) (or p0 p26 (not p27) p35 (not p22)) (or p5 p6 (not p2) (not p2) p3) (or (not p5) (not p17) (not p32) (not p2) p18) (or p1 p19 (not p35) p20 p28) (or (not p30) (not p18) p7 p12 p1) (or p3 (not p6) (not p8) p25 p38) (or p22 p1 (not p29) (not p27) p31) (or p12 p29 p3 p8 (not p9)) (or (not p16) (not p38) (not p4) p30 p35) (or p23 (not p26) (not p12) (not p6) p19) (or (not p13) (not p4) (not p28) (not p13) p10) (or p6 p6 p27 p2 (not p36)) (or p8 (not p38) (not p3) p26 (not p16)) (or (not p39) p37 p7 (not p9) p2) (or p21 p4 (not p6) (not p10) p29) (or (not p4) p31 p20 (not p16) (not p7)) (or p1 (not p17) (not p34) p16 p23) (or p2 (not p20) p5 p25 (not p3)) (or p28 p39 (not p14) p7 (not p1)) (or p15 p7 (not p11) (not p27) (not p29)) (or p1 (not p7) p25 p8 (not p10)) (or (not p7) (not p30) p20 (not p37) p32) (or p2 p8 p28 (not p30) (not p37)) (or p4 (not p32) p30 (not p32) p32) (or p21 p2 (not p3) (not p17) p7) (or (not p33) (not p1) p8 (not p16) p29) (or p18 p31 (not p23) p0 (not p30)) (or p30 (not p12) (not p19) p14 (not p39)) (or p15 p30 (not p16) (not p7) (not p35)) (or p2 p21 p14 (not p33) p31) (or p13 (not p35) (not p35) p17 (not p12)) (or p9 (not p25) (not p16) p8 (not p9)) (or p36 (not p2) (not p31) (not p8) (not p29)) (or (not p3) p7 (not p3) p27 (not p6)) (or (not p15) p37 p26 p37 p5) (or p12 (not p22) p19 p31 p25) (or (not p1) p15 (not p10) (not p23) p7) (or p5 (not p21) (not p39) p37 (not p32)) (or p9 p39 p24 p39 p10) (or (not p10) p39 p39 p36 p31) (or (not p21) p29 (not p19) p18 p16) (or p39 (not p33) p3 p0 (not p11)) (or (not p21) p3 p22 (not p17) (not p8)) (or p30 p20 (not p24) p33 (not p31)) (or p9 p22 (not p28) (not p7) p14) (or (not p4) p36 (not p28) p2 (not p30)) (or (not p25) (not p23) p8 (not p23) (not p2)) (or (not p9) p27 p36 p20 p9) (or (not p2) (not p2) (not p20) (not p24) (not p24)) (or p31 (not p9) (not p11) (not p4) p4) (or p2 (not p21) p3 (not p5) (not p26)) (or p26 (not p37) (not p23) (not p23) (not p21)) (or p16 (not p1) (not p5) p7 p33) (or p30 (not p12) p34 p13 p22) (or p18 (not p32) p38 p16 (not p38)) (or p1 p19 p33 p22 (not p25)) (or p1 (not p7) p1 p5 p39) (or (not p16) p38 (not p20) (not p18) (not p19)) (or (not p36) (not p10) p17 p1 (not p6)) (or (not p33) p38 (not p30) p5 (not p33)) (or (not p14) p10 p11 p29 (not p35)) (or p4 (not p39) (not p1) (not p0) (not p22)) (or p28 (not p10) (not p35) p13 p4) (or p9 (not p4) p3 (not p20) (not p2)) (or p6 p7 (not p26) p38 (not p34)) (or (not p23) p31 p12 p32 p21) (or p36 p17 p37 (not p9) p29) (or p29 p22 (not p1) p34 (not p27)) (or (not p8) (not p18) p9 (not p14) (not p25)) (or p16 p9 (not p11) (not p30) (not p16)) (or p1 p12 (not p20) p9 (not p12)) (or (not p22) p3 (not p0) p19 (not p1)) (or p10 (not p36) p36 (not p33) (not p38)) (or (not p4) p37 p2 (not p7) p14) (or p12 p29 (not p4) (not p1) (not p6)) (or (not p19) (not p23) (not p33) (not p0) (not p22)) (or (not p8) (not p23) p4 (not p33) (not p3)) (or (not p33) p24 p12 (not p14) p23) (or (not p12) (not p28) p7 p12 p23) (or p27 p30 p0 p9 p30) (or (not p24) (not p22) p34 (not p7) (not p5)) (or p17 p3 (not p31) p18 p31) (or (not p17) (not p18) (not p29) p2 (not p36)) (or p25 (not p22) (not p29) p8 (not p39)) (or p17 (not p24) (not p2) (not p32) (not p1)) (or (not p29) (not p30) p26 p14 (not p32)) (or (not p28) p29 (not p23) p38 p26) (or (not p19) (not p38) (not p39) (not p29) (not p3)) (or p19 p3 (not p14) (not p11) p15) (or p2 (not p23) p37 p5 p17) (or p19 (not p30) (not p36) (not p3) (not p4)) (or (not p0) p17 p36 p25 (not p35)) (or (not p0) p20 (not p26) p30 (not p15)) (or p28 (not p28) p5 (not p32) (not p9)) (or p24 p23 p36 p24 (not p2)) (or (not p20) p6 p7 p1 p26) (or (not p17) p28 p23 p17 p10) (or p29 (not p33) (not p10) p22 p2) (or p0 p33 (not p35) p9 (not p29)) (or p26 (not p15) p32 (not p25) (not p12)) (or (not p21) p0 p31 (not p19) (not p35)) (or (not p18) (not p39) p15 (not p7) p19) (or (not p33) p19 p13 (not p14) p15) (or p13 p3 (not p33) p2 (not p18)) (or (not p20) (not p7) p33 p17 p19) (or (not p26) (not p26) p37 (not p22) p30) (or (not p13) (not p14) p31 (not p25) p23) (or p27 p34 p35 p1 (not p4)) (or p9 p14 p38 p28 (not p34)) (or (not p35) (not p21) p35 (not p25) (not p10)) (or (not p28) (not p37) (not p23) p24 (not p2)) (or p39 p36 (not p28) p37 p10) (or p36 p8 p1 p18 (not p34)) (or p19 p5 p22 (not p15) (not p14)) (or p22 p17 p34 (not p34) (not p36)) (or p2 p23 (not p11) (not p12) (not p14)) (or p6 (not p7) p12 p5 p32) (or p7 p7 (not p17) (not p14) p27) (or p29 p1 (not p35) (not p13) p39) (or p6 (not p18) (not p19) (not p1) p26) (or p7 p0 (not p30) p15 (not p19)) (or (not p35) (not p32) (not p8) p14 p4) (or (not p25) p8 (not p4) (not p20) (not p35)) (or p39 p2 (not p25) (not p22) p35) (or p27 p2 p2 (not p16) p37) (or p23 (not p0) (not p30) (not p6) p3) (or p14 p23 p36 p38 (not p35)) (or (not p23) p33 p2 p18 p15) (or p18 p7 (not p34) p14 (not p8)) (or (not p26) (not p34) p17 (not p17) (not p11)) (or (not p16) (not p18) (not p17) (not p11) p9) (or (not p5) (not p13) p36 (not p39) (not p1)) (or (not p6) p11 (not p25) p19 (not p17)) (or (not p12) p35 p31 (not p21) (not p37)) (or (not p6) (not p8) p39 p18 p0) (or p10 p4 p32 (not p35) (not p31)) (or (not p30) p2 p15 p12 p32) (or (not p37) p29 (not p31) (not p0) p9) (or p20 (not p27) (not p22) p13 (not p23)) (or p32 (not p1) p9 (not p16) (not p20)) (or p8 (not p22) (not p23) (not p38) p33) (or p30 (not p31) (not p14) p16 p35) (or (not p11) p31 (not p26) p21 p13) (or (not p24) p18 p12 p34 (not p23)) (or (not p21) (not p38) p19 (not p36) (not p4)) (or (not p17) (not p3) p3 (not p31) (not p15)) (or (not p20) (not p31) p28 (not p17) p23) (or p39 (not p34) p21 (not p20) p24) (or (not p21) p34 (not p32) (not p19) p0) (or (not p33) (not p13) p25 p8 p18) (or p1 (not p2) (not p23) (not p0) (not p15)) (or p13 (not p38) (not p2) p15 (not p35)) (or (not p34) (not p3) (not p29) (not p14) (not p6)) (or (not p32) (not p4) p1 p9 (not p14)) (or p20 (not p27) (not p4) p39 (not p7)) (or (not p34) (not p6) (not p7) p24 (not p19)) (or (not p10) p32 (not p38) (not p5) p16) (or p24 p30 p25 p21 p33) (or p25 p31 (not p30) (not p21) p36) (or (not p5) p33 p30 p28 (not p29)) (or (not p29) p18 (not p38) (not p32) p33) (or (not p0) (not p5) (not p20) (not p37) p10) (or p7 p32 (not p34) p10 p29) (or (not p11) (not p5) p26 p33 p30) (or p37 (not p25) (not p35) (not p2) p15) (or (not p21) p1 p7 p27 (not p18)) (or p4 (not p31) p39 p16 p18) (or (not p25) p17 (not p23) (not p20) (not p3)) (or p29 p24 (not p10) (not p25) p20) (or p26 (not p1) (not p37) (not p3) p2) (or p22 (not p8) (not p20) (not p25) p18) (or (not p23) p24 p31 (not p11) (not p27)) (or p17 p20 p18 (not p33) (not p35)) (or (not p5) p26 (not p8) p31 p6) (or p38 p23 p14 (not p7) (not p13)) (or (not p11) p4 p20 (not p22) (not p36)) (or (not p4) (not p34) p21 p9 (not p31)) (or p23 (not p2) (not p4) p30 p37) (or p7 p39 (not p16) (not p3) p16) (or p29 (not p5) p38 p31 (not p7)) (or (not p33) p38 (not p34) p37 (not p6)) (or p31 p2 (not p0) (not p17) p11) (or p20 (not p2) p13 (not p11) (not p23)) (or p4 (not p12) (not p33) p34 (not p25)) (or (not p8) p7 (not p31) p35 (not p36)) (or p35 p23 (not p11) p10 (not p12)) (or (not p24) (not p36) p2 p39 (not p37)) (or p29 p8 (not p4) p2 p32) (or (not p0) (not p0) p19 (not p1) (not p28)) (or p28 (not p12) (not p1) p18 (not p15)) (or (not p7) (not p33) (not p31) p22 p14) (or p11 (not p19) (not p17) p33 p39) (or (not p21) p2 p25 p27 (not p16)) (or (not p5) p23 p17 (not p29) (not p29)) (or p17 (not p14) (not p20) (not p34) p30) (or p24 (not p1) (not p13) (not p11) (not p39)) (or (not p0) p21 (not p32) (not p27) p1) (or (not p23) p4 (not p36) (not p13) p21) (or (not p23) (not p28) (not p8) (not p12) p35) (or p31 (not p7) (not p19) p24 p26) (or (not p20) p22 (not p6) (not p25) p25) (or p27 (not p2) p27 (not p33) (not p13)) (or (not p30) (not p8) p4 p26 p21) (or p5 p36 (not p26) p36 (not p22)) (or (not p16) (not p10) p20 (not p18) p4) (or (not p5) (not p25) (not p20) (not p1) (not p14)) (or p1 p7 p14 p27 (not p30)) (or p2 (not p6) (not p24) p12 (not p18)) (or (not p16) (not p33) p20 (not p13) p38) (or (not p25) p29 p35 p15 p4) (or p27 p6 (not p26) (not p4) p4) (or (not p16) (not p10) (not p34) p39 (not p1)) (or (not p37) (not p6) p37 p1 p31) (or (not p13) (not p35) p25 p28 (not p31)) (or p18 (not p39) (not p11) (not p36) (not p35)) (or (not p0) p25 (not p34) p22 (not p9)) (or (not p36) p10 p16 p10 p26) (or (not p18) p6 p19 p13 (not p35)) (or (not p7) (not p38) p16 (not p18) p16) (or p35 (not p35) (not p36) p16 (not p39)) (or p3 p16 p13 p18 (not p37)) (or (not p23) p29 p34 p16 (not p25)) (or (not p18) p18 (not p2) (not p16) p0) (or (not p28) p11 p13 (not p7) p9) (or p22 p3 p22 p28 (not p18)) (or (not p28) p10 p17 p7 (not p7)) (or (not p27) p9 p25 (not p24) p39) (or (not p0) (not p39) p1 p16 (not p8)) (or p10 (not p4) (not p28) (not p11) p3) (or (not p31) p10 (not p24) p24 p26) (or p26 (not p27) (not p22) (not p35) p21) (or p8 p34 (not p24) (not p3) p1) (or p0 p16 p15 p10 (not p11)) (or (not p30) (not p5) (not p20) (not p23) p6) (or p16 p8 (not p3) p10 p11) (or (not p4) p39 p37 p23 (not p39)) (or (not p10) (not p30) p8 (not p21) p24) (or (not p10) (not p34) (not p24) (not p18) (not p39)) (or p31 (not p5) p23 (not p29) (not p11)) (or (not p4) (not p19) p12 p24 (not p23)) (or (not p2) p30 p2 (not p29) p5) (or (not p20) (not p25) p28 (not p8) (not p32)) (or (not p21) p31 (not p38) p0 (not p6)) (or (not p12) p15 (not p22) (not p24) p16) (or p15 p22 p38 p25 p5) (or (not p30) (not p36) p32 p21 (not p5)) (or (not p6) p19 (not p21) (not p28) p22) (or p28 (not p24) p2 p23 p30) (or p34 p14 (not p21) p7 (not p28)) (or p16 p4 (not p29) p5 p22) (or p15 (not p14) p3 p35 (not p36)) (or p26 (not p22) p10 (not p32) p34) (or (not p6) (not p11) p39 (not p2) p31) (or (not p28) (not p28) p0 p3 (not p18)) (or p31 p23 p35 p12 p28) (or (not p29) p21 (not p31) (not p33) p0) (or p29 (not p1) p9 (not p30) (not p2)) (or p25 (not p13) (not p3) (not p14) (not p21)) (or p31 (not p36) (not p22) (not p22) p13) (or p31 p26 (not p19) p29 (not p21)) (or p22 (not p9) (not p20) p22 (not p25)) (or p32 p38 p17 p39 p23) (or (not p19) p0 p6 p33 (not p21)) (or (not p31) (not p37) p2 (not p1) p35) (or (not p4) (not p2) (not p26) (not p23) (not p31)) (or (not p14) (not p5) (not p21) p2 (not p34)) (or (not p9) p3 p5 p6 (not p0)) (or (not p17) p7 p37 p26 p35) (or (not p9) p28 p3 (not p38) (not p3)) (or p31 (not p39) p23 p6 p39) (or (not p30) (not p19) p4 p32 (not p9)) (or p19 (not p16) (not p27) (not p23) p15) (or p1 p15 (not p12) p20 (not p34)) (or (not p34) p25 p4 (not p11) (not p5)) (or (not p24) p31 (not p39) p3 (not p10)) (or p21 (not p23) p37 (not p16) (not p17)) (or p33 p34 p16 p34 p22) (or p39 p9 p1 p25 p7) (or (not p37) p12 (not p14) p26 p22) (or (not p36) p7 p37 (not p25) (not p28)) (or p39 (not p24) (not p24) (not p15) (not p21)) (or (not p25) p21 (not p4) p32 p9) (or p11 (not p32) p14 p29 p5) (or p36 p34 (not p2) p4 p38) (or p37 p29 (not p37) (not p6) p14) (or (not p9) (not p39) p15 p8 (not p30)) (or p33 p18 p6 (not p33) (not p8)) (or (not p9) (not p20) p19 (not p2) (not p31)) (or (not p22) p39 p14 p29 p5) (or (not p8) p10 (not p33) p13 p33) (or p35 (not p12) p7 p33 p18) (or (not p9) (not p6) p6 (not p14) (not p33)) (or p26 (not p24) p20 (not p16) p39) (or (not p8) (not p27) (not p26) (not p7) p22) (or (not p20) (not p7) (not p10) p1 (not p23)) (or p32 (not p21) p29 (not p22) p21) (or p29 (not p31) (not p17) (not p20) p8) (or p31 p31 (not p17) p20 (not p11)) (or (not p19) (not p6) (not p5) (not p10) (not p25)) (or (not p24) p6 (not p5) (not p7) (not p30)) (or (not p18) p22 (not p32) (not p0) p1) (or p17 (not p22) p30 (not p27) p32) (or p0 (not p22) p1 p0 p21) (or p35 (not p24) (not p35) p3 (not p4)) (or p7 (not p30) (not p15) p6 (not p22)) (or p25 (not p2) (not p31) p22 (not p16)) (or (not p24) (not p26) p34 (not p1) p36) (or p31 (not p14) (not p35) p33 p8) (or (not p1) (not p23) (not p32) p0 p12) (or (not p3) p22 (not p33) (not p3) (not p34)) (or (not p27) (not p29) (not p26) (not p0) (not p21)) (or (not p29) (not p7) (not p23) p25 p32) (or (not p31) p36 (not p14) p29 p34) (or (not p25) (not p30) p29 p16 (not p16)) (or (not p15) (not p14) (not p31) (not p6) (not p32)) (or p23 (not p12) p9 (not p17) (not p23)) (or p27 p27 (not p4) (not p18) (not p13)) (or p23 p16 (not p3) (not p34) p3) (or (not p6) p25 p0 (not p9) (not p22)) (or p28 p13 (not p37) p25 (not p19)) (or p28 (not p26) p9 (not p37) (not p39)) (or p21 (not p5) p7 (not p25) (not p24)) (or p11 (not p20) (not p15) p5 (not p36)) (or p2 (not p39) (not p15) p38 (not p10)) (or (not p8) (not p29) p15 p29 (not p1)) (or (not p24) p39 (not p31) (not p19) p3) (or p26 p29 p8 p0 (not p22)) (or (not p39) (not p6) (not p21) (not p31) (not p18)) (or (not p38) p12 p25 (not p6) p3) (or (not p5) (not p22) (not p30) (not p34) (not p7)) (or (not p12) p28 p17 p10 (not p25)) (or (not p13) (not p34) (not p33) p10 p12) (or (not p34) p34 (not p12) p17 p30) (or p27 (not p1) (not p15) p2 (not p7)) (or (not p10) p27 p18 (not p35) (not p16)) (or p32 p1 p22 (not p34) p21) (or p8 p32 p37 p8 p39) (or (not p36) (not p22) p9 p27 p27) (or (not p33) p27 p35 (not p6) (not p32)) (or p37 p1 p5 (not p23) (not p33)) (or p34 (not p0) p17 (not p38) p29) (or p23 p23 p34 p16 (not p17)) (or (not p28) (not p17) p37 (not p2) (not p32)) (or p26 (not p31) (not p19) p25 (not p5)) (or p5 p22 (not p12) p29 (not p22)) (or p12 (not p35) p19 (not p19) p31) (or p24 (not p15) (not p8) (not p25) p16) (or (not p13) p1 (not p34) (not p26) (not p9)) (or p22 p16 p16 (not p26) (not p34)) (or p37 (not p12) p9 p30 (not p19)) (or (not p0) (not p30) p20 (not p0) (not p26)) (or p3 (not p19) (not p25) p23 (not p6)) (or p20 (not p14) p38 p27 p3) (or p12 p34 p19 p39 (not p31)) (or (not p9) p17 p27 p6 (not p6)) (or (not p29) (not p10) p25 (not p18) (not p2)) (or p30 p37 (not p1) p0 (not p19)) (or (not p31) p28 (not p12) p39 p36) (or p0 (not p28) (not p28) (not p25) p16) (or p17 p35 p14 (not p23) p14) (or p36 (not p21) (not p31) (not p8) (not p12)) (or p21 p39 (not p30) p0 (not p1)) (or (not p32) (not p10) (not p19) (not p3) (not p20)) (or (not p27) (not p6) (not p38) (not p16) (not p33)) (or (not p3) p35 p10 p11 p30) (or p19 (not p5) p32 p33 (not p7)) (or p31 p29 (not p3) p10 (not p25)) (or p23 (not p36) (not p1) (not p7) p27) (or p9 (not p25) p28 p21 (not p33)) (or (not p39) (not p20) p29 p0 p36) (or (not p24) (not p38) p30 p30 (not p35)) (or p5 (not p34) (not p22) (not p23) p24) (or (not p7) (not p1) p8 (not p26) (not p4)) (or (not p31) p24 (not p10) (not p11) (not p34)) (or (not p36) (not p38) (not p27) (not p37) (not p11)) (or (not p32) (not p1) p39 (not p15) (not p16)) (or p22 (not p17) p4 p4 p22) (or p15 p14 (not p28) p11 p35) (or p17 (not p21) (not p6) (not p2) p25) (or (not p19) (not p19) (not p33) p4 p39) (or (not p33) p8 (not p20) p17 p0) (or p37 p7 p19 (not p39) (not p26)) (or p20 p7 p30 (not p3) p2) (or (not p33) (not p3) (not p3) (not p1) p31) (or p33 (not p23) p9 (not p34) p21) (or p10 (not p30) p15 (not p17) p17) (or (not p27) (not p30) (not p7) p32 (not p13)) (or p24 (not p33) p16 (not p38) (not p31)) (or (not p7) (not p11) p31 (not p39) p25) (or (not p31) p15 p21 (not p0) (not p3)) (or p28 (not p17) (not p17) (not p32) (not p39)) (or (not p18) (not p17) (not p35) (not p17) (not p6)) (or (not p11) p22 (not p5) (not p38) p22) (or p17 (not p13) (not p5) p17 (not p29)) (or p9 (not p19) p24 p31 (not p38)) (or (not p0) (not p39) p39 p21 (not p0)) (or p26 (not p21) (not p31) (not p26) (not p29)) (or p35 p30 p35 (not p35) (not p21)) (or p37 p23 p17 p35 (not p11)) (or p4 (not p16) (not p17) (not p14) (not p28)) (or p14 (not p37) (not p22) (not p1) (not p23)) (or p6 p5 (not p0) (not p7) (not p38)) (or (not p24) p8 (not p14) p5 (not p8)) (or p2 p15 (not p11) p13 (not p9)) (or (not p30) p23 (not p8) p30 p12) (or (not p38) p5 (not p28) (not p0) (not p6)) (or p22 p23 (not p9) (not p36) (not p33)) (or p18 p10 (not p6) p30 (not p12)) (or (not p37) p18 (not p3) (not p36) p29) (or (not p20) (not p5) p10 p21 p30) (or (not p30) (not p37) p29 (not p5) p0) (or (not p13) p16 (not p35) p27 (not p23)) (or p8 (not p8) (not p12) (not p20) (not p36)) (or p19 (not p37) (not p31) p33 (not p14)) (or p6 (not p31) p19 p13 (not p32)) (or p34 p1 (not p7) (not p20) (not p32)) (or p16 (not p24) (not p38) p6 p34) (or p26 p12 p15 p4 (not p2)) (or (not p36) p32 p23 (not p39) (not p4)))
)
(check-sat)
(get-model)
